2151
8419
783
2503
8969
7900
9756
1121
4609
3424
9321
7580
5172
7599
2337
6991
7525
1441
4106
3711
4715
9545
3917
5076
2293
6792
4992
1718
4702
8808
5798
8542
5340
5057
7089
8814
6387
9809
2864
595
8667
7377
1614
2584
7773
8205
4459
7101
10151
9442
4940
